c Random generated cnf formula, satisfiable: true
p cnf 10 50
-4 8 6 0
-4 -6 -2 0
-5 8 -6 0
-10 -2 6 0
9 -5 7 0
-6 3 -9 0
-2 7 1 0
-3 6 10 0
-5 7 -3 0
1 -5 7 0
2 10 -1 0
-8 -10 -2 0
-3 10 -8 0
5 -4 10 0
-9 6 -8 0
-5 -7 -9 0
1 -8 -5 0
6 5 -4 0
-10 1 -2 0
2 1 9 0
-8 -9 -4 0
-8 4 -6 0
9 4 7 0
-10 7 -5 0
-1 4 -5 0
6 -3 5 0
-2 -7 8 0
-5 8 1 0
-7 5 -10 0
-4 -3 1 0
5 -10 7 0
1 -4 -3 0
-8 1 -3 0
-6 9 -4 0
-1 6 -2 0
2 -8 -6 0
-2 9 8 0
-2 -3 -10 0
5 -10 9 0
9 -5 4 0
4 -5 8 0
2 5 9 0
-6 9 2 0
5 -7 6 0
4 -9 2 0
1 7 -8 0
-5 1 -10 0
3 -1 5 0
-5 -7 -10 0
8 -4 -2 0
